NAME: A-n6-f2
COMMENT : -
TYPE : GVRP
DIMENSION : 7
EDGE_WEIGHT_TYPE : EUC_2D
CAPACITY : 100
AUTONOMY : 392
TIME LIMIT : 11
SPEED : 40.0
FUEL CONSUMPTION : 1.0
DEPOT_COORD_SECTION
0 82 76
CUSTOMER_COORD_SECTION
1 96 44 19 0.5234712759597026
2 13 7 21 0.6550731483726663
3 84 25 6 0.0037878115546066127
4 85 60 19 0.4897637729623072
5 98 5 7 0.9123558933312577
AFS_COORD_SECTION
6 88 68 0.25
7 75 9 0.25
EOF